NAME : Adapted from SSP file rand_6_13.ssp
COMMENT : 
TYPE : HCP
DIMENSION : 1011
EDGE_DATA_FORMAT : EDGE_LIST
EDGE_DATA_SECTION
1 2
1 6
1 9
1 1011
2 1
2 3
3 2
3 4
3 7
4 3
4 5
4 9
5 4
5 6
6 1
6 5
6 7
6 142
7 3
7 6
7 8
8 7
8 9
9 1
9 4
9 8
9 115
10 11
10 939
10 975
11 10
11 12
12 11
12 13
13 12
13 14
13 18
13 21
14 13
14 15
15 14
15 16
15 19
16 15
16 17
16 21
17 16
17 18
18 13
18 17
18 19
18 262
19 15
19 18
19 20
20 19
20 21
21 13
21 16
21 20
21 235
22 23
22 948
22 984
23 22
23 24
24 23
24 25
25 24
25 26
25 30
25 33
26 25
26 27
27 26
27 28
27 31
28 27
28 29
28 33
29 28
29 30
30 25
30 29
30 31
30 202
31 27
31 30
31 32
32 31
32 33
33 25
33 28
33 32
33 175
34 35
34 957
34 993
35 34
35 36
36 35
36 37
37 36
37 38
37 42
37 45
38 37
38 39
39 38
39 40
39 43
40 39
40 41
40 45
41 40
41 42
42 37
42 41
42 43
42 124
43 39
43 42
43 44
44 43
44 45
45 37
45 40
45 44
45 97
46 47
46 732
46 768
47 46
47 48
48 47
48 49
49 48
49 50
49 54
49 57
50 49
50 51
51 50
51 52
51 55
52 51
52 53
52 57
53 52
53 54
54 49
54 53
54 55
54 133
55 51
55 54
55 56
56 55
56 57
57 49
57 52
57 56
57 106
58 59
58 966
58 1002
59 58
59 60
60 59
60 61
61 60
61 62
61 66
61 69
62 61
62 63
63 62
63 64
63 67
64 63
64 65
64 69
65 64
65 66
66 61
66 65
66 67
66 400
67 63
67 66
67 68
68 67
68 69
69 61
69 64
69 68
69 373
70 71
70 888
70 915
71 70
71 72
72 71
72 73
73 72
73 74
74 73
74 75
75 74
75 76
76 75
76 77
77 76
77 78
78 77
78 91
78 118
79 80
79 117
79 144
80 79
80 81
81 80
81 145
82 83
82 87
82 99
82 108
83 82
83 84
84 83
84 85
84 100
84 109
85 84
85 86
85 90
86 85
86 87
87 82
87 86
87 88
88 87
88 89
88 126
88 135
89 88
89 90
90 85
90 89
90 127
90 136
91 78
91 92
91 96
92 91
92 93
93 92
93 94
93 166
94 93
94 95
94 99
95 94
95 96
96 91
96 95
96 97
97 45
97 96
97 98
98 97
98 99
99 82
99 94
99 98
99 100
99 127
100 84
100 99
100 101
100 105
100 126
101 100
101 102
102 101
102 103
102 184
103 102
103 104
103 108
104 103
104 105
105 100
105 104
105 106
106 57
106 105
106 107
107 106
107 108
108 82
108 103
108 107
108 109
108 136
109 84
109 108
109 110
109 114
109 135
110 109
110 111
111 110
111 112
111 322
112 111
112 113
112 117
113 112
113 114
114 109
114 113
114 115
115 9
115 114
115 116
116 115
116 117
117 79
117 112
117 116
118 78
118 119
118 123
119 118
119 120
120 119
120 121
120 193
121 120
121 122
121 126
122 121
122 123
123 118
123 122
123 124
124 42
124 123
124 125
125 124
125 126
126 88
126 100
126 121
126 125
126 127
127 90
127 99
127 126
127 128
127 132
128 127
128 129
129 128
129 130
129 211
130 129
130 131
130 135
131 130
131 132
132 127
132 131
132 133
133 54
133 132
133 134
134 133
134 135
135 88
135 109
135 130
135 134
135 136
136 90
136 108
136 135
136 137
136 141
137 136
137 138
138 137
138 139
138 349
139 138
139 140
139 144
140 139
140 141
141 136
141 140
141 142
142 6
142 141
142 143
143 142
143 144
144 79
144 139
144 143
145 81
145 146
146 145
146 147
147 146
147 160
147 187
148 149
148 186
148 213
149 148
149 150
150 149
150 214
151 152
151 156
151 168
151 177
152 151
152 153
153 152
153 154
153 169
153 178
154 153
154 155
154 159
155 154
155 156
156 151
156 155
156 157
157 156
157 158
157 195
157 204
158 157
158 159
159 154
159 158
159 196
159 205
160 147
160 161
160 165
161 160
161 162
162 161
162 163
162 304
163 162
163 164
163 168
164 163
164 165
165 160
165 164
165 166
166 93
166 165
166 167
167 166
167 168
168 151
168 163
168 167
168 169
168 196
169 153
169 168
169 170
169 174
169 195
170 169
170 171
171 170
171 172
171 253
172 171
172 173
172 177
173 172
173 174
174 169
174 173
174 175
175 33
175 174
175 176
176 175
176 177
177 151
177 172
177 176
177 178
177 205
178 153
178 177
178 179
178 183
178 204
179 178
179 180
180 179
180 181
180 244
181 180
181 182
181 186
182 181
182 183
183 178
183 182
183 184
184 102
184 183
184 185
185 184
185 186
186 148
186 181
186 185
187 147
187 188
187 192
188 187
188 189
189 188
189 190
189 331
190 189
190 191
190 195
191 190
191 192
192 187
192 191
192 193
193 120
193 192
193 194
194 193
194 195
195 157
195 169
195 190
195 194
195 196
196 159
196 168
196 195
196 197
196 201
197 196
197 198
198 197
198 199
198 280
199 198
199 200
199 204
200 199
200 201
201 196
201 200
201 202
202 30
202 201
202 203
203 202
203 204
204 157
204 178
204 199
204 203
204 205
205 159
205 177
205 204
205 206
205 210
206 205
206 207
207 206
207 208
207 271
208 207
208 209
208 213
209 208
209 210
210 205
210 209
210 211
211 129
211 210
211 212
212 211
212 213
213 148
213 208
213 212
214 150
214 215
215 214
215 216
216 215
216 229
216 256
217 218
217 255
217 282
218 217
218 219
219 218
219 283
220 221
220 225
220 237
220 246
221 220
221 222
222 221
222 223
222 238
222 247
223 222
223 224
223 228
224 223
224 225
225 220
225 224
225 226
226 225
226 227
226 264
226 273
227 226
227 228
228 223
228 227
228 265
228 274
229 216
229 230
229 234
230 229
230 231
231 230
231 232
231 442
232 231
232 233
232 237
233 232
233 234
234 229
234 233
234 235
235 21
235 234
235 236
236 235
236 237
237 220
237 232
237 236
237 238
237 265
238 222
238 237
238 239
238 243
238 264
239 238
239 240
240 239
240 241
240 391
241 240
241 242
241 246
242 241
242 243
243 238
243 242
243 244
244 180
244 243
244 245
245 244
245 246
246 220
246 241
246 245
246 247
246 274
247 222
247 246
247 248
247 252
247 273
248 247
248 249
249 248
249 250
249 313
250 249
250 251
250 255
251 250
251 252
252 247
252 251
252 253
253 171
253 252
253 254
254 253
254 255
255 217
255 250
255 254
256 216
256 257
256 261
257 256
257 258
258 257
258 259
258 469
259 258
259 260
259 264
260 259
260 261
261 256
261 260
261 262
262 18
262 261
262 263
263 262
263 264
264 226
264 238
264 259
264 263
264 265
265 228
265 237
265 264
265 266
265 270
266 265
266 267
267 266
267 268
267 418
268 267
268 269
268 273
269 268
269 270
270 265
270 269
270 271
271 207
271 270
271 272
272 271
272 273
273 226
273 247
273 268
273 272
273 274
274 228
274 246
274 273
274 275
274 279
275 274
275 276
276 275
276 277
276 340
277 276
277 278
277 282
278 277
278 279
279 274
279 278
279 280
280 198
280 279
280 281
281 280
281 282
282 217
282 277
282 281
283 219
283 284
284 283
284 285
285 284
285 298
285 325
286 287
286 324
286 351
287 286
287 288
288 287
288 352
289 290
289 294
289 306
289 315
290 289
290 291
291 290
291 292
291 307
291 316
292 291
292 293
292 297
293 292
293 294
294 289
294 293
294 295
295 294
295 296
295 333
295 342
296 295
296 297
297 292
297 296
297 334
297 343
298 285
298 299
298 303
299 298
299 300
300 299
300 301
300 511
301 300
301 302
301 306
302 301
302 303
303 298
303 302
303 304
304 162
304 303
304 305
305 304
305 306
306 289
306 301
306 305
306 307
306 334
307 291
307 306
307 308
307 312
307 333
308 307
308 309
309 308
309 310
309 382
310 309
310 311
310 315
311 310
311 312
312 307
312 311
312 313
313 249
313 312
313 314
314 313
314 315
315 289
315 310
315 314
315 316
315 343
316 291
316 315
316 317
316 321
316 342
317 316
317 318
318 317
318 319
318 460
319 318
319 320
319 324
320 319
320 321
321 316
321 320
321 322
322 111
322 321
322 323
323 322
323 324
324 286
324 319
324 323
325 285
325 326
325 330
326 325
326 327
327 326
327 328
327 538
328 327
328 329
328 333
329 328
329 330
330 325
330 329
330 331
331 189
331 330
331 332
332 331
332 333
333 295
333 307
333 328
333 332
333 334
334 297
334 306
334 333
334 335
334 339
335 334
335 336
336 335
336 337
336 409
337 336
337 338
337 342
338 337
338 339
339 334
339 338
339 340
340 276
340 339
340 341
341 340
341 342
342 295
342 316
342 337
342 341
342 343
343 297
343 315
343 342
343 344
343 348
344 343
344 345
345 344
345 346
345 487
346 345
346 347
346 351
347 346
347 348
348 343
348 347
348 349
349 138
349 348
349 350
350 349
350 351
351 286
351 346
351 350
352 288
352 353
353 352
353 354
354 353
354 367
354 394
355 356
355 393
355 420
356 355
356 357
357 356
357 421
358 359
358 363
358 375
358 384
359 358
359 360
360 359
360 361
360 376
360 385
361 360
361 362
361 366
362 361
362 363
363 358
363 362
363 364
364 363
364 365
364 402
364 411
365 364
365 366
366 361
366 365
366 403
366 412
367 354
367 368
367 372
368 367
368 369
369 368
369 370
369 667
370 369
370 371
370 375
371 370
371 372
372 367
372 371
372 373
373 69
373 372
373 374
374 373
374 375
375 358
375 370
375 374
375 376
375 403
376 360
376 375
376 377
376 381
376 402
377 376
377 378
378 377
378 379
378 529
379 378
379 380
379 384
380 379
380 381
381 376
381 380
381 382
382 309
382 381
382 383
383 382
383 384
384 358
384 379
384 383
384 385
384 412
385 360
385 384
385 386
385 390
385 411
386 385
386 387
387 386
387 388
387 451
388 387
388 389
388 393
389 388
389 390
390 385
390 389
390 391
391 240
391 390
391 392
392 391
392 393
393 355
393 388
393 392
394 354
394 395
394 399
395 394
395 396
396 395
396 397
396 694
397 396
397 398
397 402
398 397
398 399
399 394
399 398
399 400
400 66
400 399
400 401
401 400
401 402
402 364
402 376
402 397
402 401
402 403
403 366
403 375
403 402
403 404
403 408
404 403
404 405
405 404
405 406
405 556
406 405
406 407
406 411
407 406
407 408
408 403
408 407
408 409
409 336
409 408
409 410
410 409
410 411
411 364
411 385
411 406
411 410
411 412
412 366
412 384
412 411
412 413
412 417
413 412
413 414
414 413
414 415
414 478
415 414
415 416
415 420
416 415
416 417
417 412
417 416
417 418
418 267
418 417
418 419
419 418
419 420
420 355
420 415
420 419
421 357
421 422
422 421
422 423
423 422
423 436
423 463
424 425
424 462
424 489
425 424
425 426
426 425
426 490
427 428
427 432
427 444
427 453
428 427
428 429
429 428
429 430
429 445
429 454
430 429
430 431
430 435
431 430
431 432
432 427
432 431
432 433
433 432
433 434
433 471
433 480
434 433
434 435
435 430
435 434
435 472
435 481
436 423
436 437
436 441
437 436
437 438
438 437
438 439
438 580
439 438
439 440
439 444
440 439
440 441
441 436
441 440
441 442
442 231
442 441
442 443
443 442
443 444
444 427
444 439
444 443
444 445
444 472
445 429
445 444
445 446
445 450
445 471
446 445
446 447
447 446
447 448
447 520
448 447
448 449
448 453
449 448
449 450
450 445
450 449
450 451
451 387
451 450
451 452
452 451
452 453
453 427
453 448
453 452
453 454
453 481
454 429
454 453
454 455
454 459
454 480
455 454
455 456
456 455
456 457
456 649
457 456
457 458
457 462
458 457
458 459
459 454
459 458
459 460
460 318
460 459
460 461
461 460
461 462
462 424
462 457
462 461
463 423
463 464
463 468
464 463
464 465
465 464
465 466
465 607
466 465
466 467
466 471
467 466
467 468
468 463
468 467
468 469
469 258
469 468
469 470
470 469
470 471
471 433
471 445
471 466
471 470
471 472
472 435
472 444
472 471
472 473
472 477
473 472
473 474
474 473
474 475
474 547
475 474
475 476
475 480
476 475
476 477
477 472
477 476
477 478
478 414
478 477
478 479
479 478
479 480
480 433
480 454
480 475
480 479
480 481
481 435
481 453
481 480
481 482
481 486
482 481
482 483
483 482
483 484
483 676
484 483
484 485
484 489
485 484
485 486
486 481
486 485
486 487
487 345
487 486
487 488
488 487
488 489
489 424
489 484
489 488
490 426
490 491
491 490
491 492
492 491
492 505
492 532
493 494
493 531
493 558
494 493
494 495
495 494
495 559
496 497
496 501
496 513
496 522
497 496
497 498
498 497
498 499
498 514
498 523
499 498
499 500
499 504
500 499
500 501
501 496
501 500
501 502
502 501
502 503
502 540
502 549
503 502
503 504
504 499
504 503
504 541
504 550
505 492
505 506
505 510
506 505
506 507
507 506
507 508
507 736
508 507
508 509
508 513
509 508
509 510
510 505
510 509
510 511
511 300
511 510
511 512
512 511
512 513
513 496
513 508
513 512
513 514
513 541
514 498
514 513
514 515
514 519
514 540
515 514
515 516
516 515
516 517
516 589
517 516
517 518
517 522
518 517
518 519
519 514
519 518
519 520
520 447
520 519
520 521
521 520
521 522
522 496
522 517
522 521
522 523
522 550
523 498
523 522
523 524
523 528
523 549
524 523
524 525
525 524
525 526
525 598
526 525
526 527
526 531
527 526
527 528
528 523
528 527
528 529
529 378
529 528
529 530
530 529
530 531
531 493
531 526
531 530
532 492
532 533
532 537
533 532
533 534
534 533
534 535
534 772
535 534
535 536
535 540
536 535
536 537
537 532
537 536
537 538
538 327
538 537
538 539
539 538
539 540
540 502
540 514
540 535
540 539
540 541
541 504
541 513
541 540
541 542
541 546
542 541
542 543
543 542
543 544
543 616
544 543
544 545
544 549
545 544
545 546
546 541
546 545
546 547
547 474
547 546
547 548
548 547
548 549
549 502
549 523
549 544
549 548
549 550
550 504
550 522
550 549
550 551
550 555
551 550
551 552
552 551
552 553
552 625
553 552
553 554
553 558
554 553
554 555
555 550
555 554
555 556
556 405
556 555
556 557
557 556
557 558
558 493
558 553
558 557
559 495
559 560
560 559
560 561
561 560
561 574
561 601
562 563
562 600
562 627
563 562
563 564
564 563
564 628
565 566
565 570
565 582
565 591
566 565
566 567
567 566
567 568
567 583
567 592
568 567
568 569
568 573
569 568
569 570
570 565
570 569
570 571
571 570
571 572
571 609
571 618
572 571
572 573
573 568
573 572
573 610
573 619
574 561
574 575
574 579
575 574
575 576
576 575
576 577
576 727
577 576
577 578
577 582
578 577
578 579
579 574
579 578
579 580
580 438
580 579
580 581
581 580
581 582
582 565
582 577
582 581
582 583
582 610
583 567
583 582
583 584
583 588
583 609
584 583
584 585
585 584
585 586
585 883
586 585
586 587
586 591
587 586
587 588
588 583
588 587
588 589
589 516
589 588
589 590
590 589
590 591
591 565
591 586
591 590
591 592
591 619
592 567
592 591
592 593
592 597
592 618
593 592
593 594
594 593
594 595
594 658
595 594
595 596
595 600
596 595
596 597
597 592
597 596
597 598
598 525
598 597
598 599
599 598
599 600
600 562
600 595
600 599
601 561
601 602
601 606
602 601
602 603
603 602
603 604
603 763
604 603
604 605
604 609
605 604
605 606
606 601
606 605
606 607
607 465
607 606
607 608
608 607
608 609
609 571
609 583
609 604
609 608
609 610
610 573
610 582
610 609
610 611
610 615
611 610
611 612
612 611
612 613
612 910
613 612
613 614
613 618
614 613
614 615
615 610
615 614
615 616
616 543
616 615
616 617
617 616
617 618
618 571
618 592
618 613
618 617
618 619
619 573
619 591
619 618
619 620
619 624
620 619
620 621
621 620
621 622
621 685
622 621
622 623
622 627
623 622
623 624
624 619
624 623
624 625
625 552
625 624
625 626
626 625
626 627
627 562
627 622
627 626
628 564
628 629
629 628
629 630
630 629
630 643
630 670
631 632
631 669
631 696
632 631
632 633
633 632
633 697
634 635
634 639
634 651
634 660
635 634
635 636
636 635
636 637
636 652
636 661
637 636
637 638
637 642
638 637
638 639
639 634
639 638
639 640
640 639
640 641
640 678
640 687
641 640
641 642
642 637
642 641
642 679
642 688
643 630
643 644
643 648
644 643
644 645
645 644
645 646
645 718
646 645
646 647
646 651
647 646
647 648
648 643
648 647
648 649
649 456
649 648
649 650
650 649
650 651
651 634
651 646
651 650
651 652
651 679
652 636
652 651
652 653
652 657
652 678
653 652
653 654
654 653
654 655
654 823
655 654
655 656
655 660
656 655
656 657
657 652
657 656
657 658
658 594
658 657
658 659
659 658
659 660
660 634
660 655
660 659
660 661
660 688
661 636
661 660
661 662
661 666
661 687
662 661
662 663
663 662
663 664
663 745
664 663
664 665
664 669
665 664
665 666
666 661
666 665
666 667
667 369
667 666
667 668
668 667
668 669
669 631
669 664
669 668
670 630
670 671
670 675
671 670
671 672
672 671
672 673
672 754
673 672
673 674
673 678
674 673
674 675
675 670
675 674
675 676
676 483
676 675
676 677
677 676
677 678
678 640
678 652
678 673
678 677
678 679
679 642
679 651
679 678
679 680
679 684
680 679
680 681
681 680
681 682
681 850
682 681
682 683
682 687
683 682
683 684
684 679
684 683
684 685
685 621
685 684
685 686
686 685
686 687
687 640
687 661
687 682
687 686
687 688
688 642
688 660
688 687
688 689
688 693
689 688
689 690
690 689
690 691
690 781
691 690
691 692
691 696
692 691
692 693
693 688
693 692
693 694
694 396
694 693
694 695
695 694
695 696
696 631
696 691
696 695
697 633
697 698
698 697
698 699
699 698
699 712
699 748
700 701
700 747
700 783
701 700
701 702
702 701
702 784
703 704
703 708
703 720
703 729
703 738
704 703
704 705
705 704
705 706
705 721
705 730
705 739
706 705
706 707
706 711
707 706
707 708
708 703
708 707
708 709
709 708
709 710
709 756
709 765
709 774
710 709
710 711
711 706
711 710
711 757
711 766
711 775
712 699
712 713
712 717
713 712
713 714
714 713
714 715
714 805
715 714
715 716
715 720
716 715
716 717
717 712
717 716
717 718
718 645
718 717
718 719
719 718
719 720
720 703
720 715
720 719
720 721
720 757
721 705
721 720
721 722
721 726
721 756
722 721
722 723
723 722
723 724
723 814
724 723
724 725
724 729
725 724
725 726
726 721
726 725
726 727
727 576
727 726
727 728
728 727
728 729
729 703
729 724
729 728
729 730
729 766
730 705
730 729
730 731
730 735
730 765
731 730
731 732
732 46
732 731
732 733
733 732
733 734
733 738
734 733
734 735
735 730
735 734
735 736
736 507
736 735
736 737
737 736
737 738
738 703
738 733
738 737
738 739
738 775
739 705
739 738
739 740
739 744
739 774
740 739
740 741
741 740
741 742
741 892
742 741
742 743
742 747
743 742
743 744
744 739
744 743
744 745
745 663
745 744
745 746
746 745
746 747
747 700
747 742
747 746
748 699
748 749
748 753
749 748
749 750
750 749
750 751
750 832
751 750
751 752
751 756
752 751
752 753
753 748
753 752
753 754
754 672
754 753
754 755
755 754
755 756
756 709
756 721
756 751
756 755
756 757
757 711
757 720
757 756
757 758
757 762
758 757
758 759
759 758
759 760
759 841
760 759
760 761
760 765
761 760
761 762
762 757
762 761
762 763
763 603
763 762
763 764
764 763
764 765
765 709
765 730
765 760
765 764
765 766
766 711
766 729
766 765
766 767
766 771
767 766
767 768
768 46
768 767
768 769
769 768
769 770
769 774
770 769
770 771
771 766
771 770
771 772
772 534
772 771
772 773
773 772
773 774
774 709
774 739
774 769
774 773
774 775
775 711
775 738
775 774
775 776
775 780
776 775
776 777
777 776
777 778
777 919
778 777
778 779
778 783
779 778
779 780
780 775
780 779
780 781
781 690
781 780
781 782
782 781
782 783
783 700
783 778
783 782
784 702
784 785
785 784
785 786
786 785
786 799
786 826
787 788
787 825
787 852
788 787
788 789
789 788
789 853
790 791
790 795
790 807
790 816
791 790
791 792
792 791
792 793
792 808
792 817
793 792
793 794
793 798
794 793
794 795
795 790
795 794
795 796
796 795
796 797
796 834
796 843
797 796
797 798
798 793
798 797
798 835
798 844
799 786
799 800
799 804
800 799
800 801
801 800
801 802
801 874
802 801
802 803
802 807
803 802
803 804
804 799
804 803
804 805
805 714
805 804
805 806
806 805
806 807
807 790
807 802
807 806
807 808
807 835
808 792
808 807
808 809
808 813
808 834
809 808
809 810
810 809
810 811
810 952
811 810
811 812
811 816
812 811
812 813
813 808
813 812
813 814
814 723
814 813
814 815
815 814
815 816
816 790
816 811
816 815
816 817
816 844
817 792
817 816
817 818
817 822
817 843
818 817
818 819
819 818
819 820
819 961
820 819
820 821
820 825
821 820
821 822
822 817
822 821
822 823
823 654
823 822
823 824
824 823
824 825
825 787
825 820
825 824
826 786
826 827
826 831
827 826
827 828
828 827
828 829
828 901
829 828
829 830
829 834
830 829
830 831
831 826
831 830
831 832
832 750
832 831
832 833
833 832
833 834
834 796
834 808
834 829
834 833
834 835
835 798
835 807
835 834
835 836
835 840
836 835
836 837
837 836
837 838
837 988
838 837
838 839
838 843
839 838
839 840
840 835
840 839
840 841
841 759
841 840
841 842
842 841
842 843
843 796
843 817
843 838
843 842
843 844
844 798
844 816
844 843
844 845
844 849
845 844
845 846
846 845
846 847
846 997
847 846
847 848
847 852
848 847
848 849
849 844
849 848
849 850
850 681
850 849
850 851
851 850
851 852
852 787
852 847
852 851
853 789
853 854
854 853
854 855
855 854
855 868
855 895
856 857
856 894
856 921
857 856
857 858
858 857
858 922
859 860
859 864
859 876
859 885
860 859
860 861
861 860
861 862
861 877
861 886
862 861
862 863
862 867
863 862
863 864
864 859
864 863
864 865
865 864
865 866
865 903
865 912
866 865
866 867
867 862
867 866
867 904
867 913
868 855
868 869
868 873
869 868
869 870
870 869
870 871
870 943
871 870
871 872
871 876
872 871
872 873
873 868
873 872
873 874
874 801
874 873
874 875
875 874
875 876
876 859
876 871
876 875
876 877
876 904
877 861
877 876
877 878
877 882
877 903
878 877
878 879
879 878
879 880
879 970
880 879
880 881
880 885
881 880
881 882
882 877
882 881
882 883
883 585
883 882
883 884
884 883
884 885
885 859
885 880
885 884
885 886
885 913
886 861
886 885
886 887
886 891
886 912
887 886
887 888
888 70
888 887
888 889
889 888
889 890
889 894
890 889
890 891
891 886
891 890
891 892
892 741
892 891
892 893
893 892
893 894
894 856
894 889
894 893
895 855
895 896
895 900
896 895
896 897
897 896
897 898
897 979
898 897
898 899
898 903
899 898
899 900
900 895
900 899
900 901
901 828
901 900
901 902
902 901
902 903
903 865
903 877
903 898
903 902
903 904
904 867
904 876
904 903
904 905
904 909
905 904
905 906
906 905
906 907
906 1006
907 906
907 908
907 912
908 907
908 909
909 904
909 908
909 910
910 612
910 909
910 911
911 910
911 912
912 865
912 886
912 907
912 911
912 913
913 867
913 885
913 912
913 914
913 918
914 913
914 915
915 70
915 914
915 916
916 915
916 917
916 921
917 916
917 918
918 913
918 917
918 919
919 777
919 918
919 920
920 919
920 921
921 856
921 916
921 920
922 858
922 923
923 922
923 924
924 923
924 937
924 973
925 926
925 972
925 1008
926 925
926 927
927 926
927 1009
928 929
928 933
928 945
928 954
928 963
929 928
929 930
930 929
930 931
930 946
930 955
930 964
931 930
931 932
931 936
932 931
932 933
933 928
933 932
933 934
934 933
934 935
934 981
934 990
934 999
935 934
935 936
936 931
936 935
936 982
936 991
936 1000
937 924
937 938
937 942
938 937
938 939
939 10
939 938
939 940
940 939
940 941
940 945
941 940
941 942
942 937
942 941
942 943
943 870
943 942
943 944
944 943
944 945
945 928
945 940
945 944
945 946
945 982
946 930
946 945
946 947
946 951
946 981
947 946
947 948
948 22
948 947
948 949
949 948
949 950
949 954
950 949
950 951
951 946
951 950
951 952
952 810
952 951
952 953
953 952
953 954
954 928
954 949
954 953
954 955
954 991
955 930
955 954
955 956
955 960
955 990
956 955
956 957
957 34
957 956
957 958
958 957
958 959
958 963
959 958
959 960
960 955
960 959
960 961
961 819
961 960
961 962
962 961
962 963
963 928
963 958
963 962
963 964
963 1000
964 930
964 963
964 965
964 969
964 999
965 964
965 966
966 58
966 965
966 967
967 966
967 968
967 972
968 967
968 969
969 964
969 968
969 970
970 879
970 969
970 971
971 970
971 972
972 925
972 967
972 971
973 924
973 974
973 978
974 973
974 975
975 10
975 974
975 976
976 975
976 977
976 981
977 976
977 978
978 973
978 977
978 979
979 897
979 978
979 980
980 979
980 981
981 934
981 946
981 976
981 980
981 982
982 936
982 945
982 981
982 983
982 987
983 982
983 984
984 22
984 983
984 985
985 984
985 986
985 990
986 985
986 987
987 982
987 986
987 988
988 837
988 987
988 989
989 988
989 990
990 934
990 955
990 985
990 989
990 991
991 936
991 954
991 990
991 992
991 996
992 991
992 993
993 34
993 992
993 994
994 993
994 995
994 999
995 994
995 996
996 991
996 995
996 997
997 846
997 996
997 998
998 997
998 999
999 934
999 964
999 994
999 998
999 1000
1000 936
1000 963
1000 999
1000 1001
1000 1005
1001 1000
1001 1002
1002 58
1002 1001
1002 1003
1003 1002
1003 1004
1003 1008
1004 1003
1004 1005
1005 1000
1005 1004
1005 1006
1006 906
1006 1005
1006 1007
1007 1006
1007 1008
1008 925
1008 1003
1008 1007
1009 927
1009 1010
1010 1009
1010 1011
1011 1
1011 1010
-1
EOF
